
Gurobi 11.0.3 (linux64) logging started Wed Apr 15 19:50:25 2026

Set parameter LogFile to value "tree/results/dmtl/dmtl_depth-4_run-2/Full MIP/LogFile_FullModel.txt"
Gurobi Optimizer version 11.0.3 build v11.0.3rc0 (linux64 - "CentOS Linux 7 (Core)")

CPU model: Intel(R) Xeon(R) Platinum 8260 CPU @ 2.40GHz, instruction set [SSE2|AVX|AVX2|AVX512]
Thread count: 96 physical cores, 192 logical processors, using up to 32 threads

Optimize a model with 57993 rows, 35994 columns and 1876479 nonzeros
Model fingerprint: 0xe1b492af
Model has 4288 general constraints
Variable types: 22524 continuous, 13470 integer (13470 binary)
Coefficient statistics:
  Matrix range     [4e-03, 1e+04]
  Objective range  [4e-03, 1e+04]
  Bounds range     [1e+00, 8e+02]
  RHS range        [1e-04, 2e+03]

User MIP start produced solution with objective 0.906716 (0.49s)
Loaded user MIP start with objective 0.906716

Presolve added 4272 rows and 17151 columns
Presolve time: 2.00s
Presolved: 62265 rows, 53145 columns, 1910732 nonzeros
Presolved model has 17152 SOS constraint(s)
Variable types: 22523 continuous, 30622 integer (30622 binary)

Deterministic concurrent LP optimizer: primal simplex, dual simplex, and barrier
Showing barrier log only...

Root relaxation presolved: 62265 rows, 53145 columns, 1910732 nonzeros

Root barrier log...

Ordering time: 0.08s

Barrier statistics:
 Dense cols : 525
 AA' NZ     : 1.928e+06
 Factor NZ  : 7.771e+06 (roughly 120 MB of memory)
 Factor Ops : 1.121e+09 (less than 1 second per iteration)
 Threads    : 30

                  Objective                Residual
Iter       Primal          Dual         Primal    Dual     Compl     Time
   0   9.60185227e+02  8.35290705e+08  3.40e+04 5.97e-02  7.74e+05     5s
   1   9.60372024e+01  1.39106010e+09  1.37e+04 7.67e+01  2.84e+05     5s
   2   1.25806147e+01  1.42286404e+09  1.59e+03 1.44e+01  4.30e+04     6s
   3   2.33085341e+00  5.82659845e+08  2.01e+02 1.34e+00  7.08e+03     6s
   4   7.74404215e-01  8.43956830e+07  2.39e+01 1.31e-01  8.48e+02     6s
   5   4.92814561e-01  1.16601658e+07  1.73e+00 1.48e-02  1.06e+02     6s
   6   4.63175090e-01  1.27679600e+06  7.64e-02 1.48e-03  1.10e+01     7s
   7   4.61002692e-01  1.28946984e+05  7.57e-03 1.49e-04  1.10e+00     7s
   8   4.68486166e-01  1.39637915e+04  7.50e-04 1.62e-05  1.19e-01     7s
   9   5.62037453e-01  1.81510907e+03  7.44e-05 2.09e-06  1.55e-02     7s
  10   9.01360790e-01  3.62641848e+02  7.37e-06 3.80e-07  3.09e-03     8s
  11   9.90136078e-01  3.75451104e+01  7.30e-07 3.80e-08  3.12e-04     8s
  12   9.99013608e-01  4.65458410e+00  7.31e-08 3.80e-09  3.12e-05     8s
  13   9.99901361e-01  1.36890839e+00  7.24e-09 3.80e-10  3.15e-06     8s
  14   9.99990136e-01  1.03689084e+00  7.24e-10 3.80e-11  3.15e-07     9s
  15   9.99999014e-01  1.00372391e+00  7.21e-11 3.80e-12  3.17e-08    10s
  16   9.99999901e-01  1.00037239e+00  7.30e-12 3.80e-13  3.17e-09    10s
  17   9.99999990e-01  1.00003724e+00  9.38e-13 3.80e-14  3.17e-10    10s
  18   9.99999999e-01  1.00000372e+00  4.83e-13 3.80e-15  3.17e-11    11s
  19   1.00000000e+00  1.00000037e+00  4.55e-13 3.80e-16  3.17e-12    11s
  20   1.00000000e+00  1.00000004e+00  4.55e-13 3.81e-17  3.17e-13    12s
  21   1.00000000e+00  1.00000000e+00  4.55e-13 3.81e-18  3.17e-14    12s

Barrier solved model in 21 iterations and 11.94 seconds (10.22 work units)
Optimal objective 1.00000000e+00


Root crossover log...

    2568 DPushes remaining with DInf 0.0000000e+00                12s

   21529 PPushes remaining with PInf 0.0000000e+00                12s
       0 PPushes remaining with PInf 0.0000000e+00                15s

  Push phase complete: Pinf 0.0000000e+00, Dinf 0.0000000e+00     15s


Root simplex log...

Iteration    Objective       Primal Inf.    Dual Inf.      Time
   21532    1.0000000e+00   0.000000e+00   0.000000e+00     15s
   21532    1.0000000e+00   0.000000e+00   0.000000e+00     15s
Concurrent spin time: 0.00s

Solved with barrier

Root relaxation: objective 1.000000e+00, 21532 iterations, 12.14 seconds (10.41 work units)
Total elapsed time = 71.04s (DegenMoves)

    Nodes    |    Current Node    |     Objective Bounds      |     Work
 Expl Unexpl |  Obj  Depth IntInf | Incumbent    BestBd   Gap | It/Node Time

     0     0    1.00000    0 3072    0.90672    1.00000  10.3%     -   71s
     0     2    1.00000    0 3072    0.90672    1.00000  10.3%     -  273s
     1     4    1.00000    1 2895    0.90672    1.00000  10.3% 14859  315s
     3     8    1.00000    2 2285    0.90672    1.00000  10.3% 10443  435s
     7    16    1.00000    3 2090    0.90672    1.00000  10.3%  6337  580s
    15    32    1.00000    4 2519    0.90672    1.00000  10.3%  6016  794s
    31    64    1.00000    5 2483    0.90672    1.00000  10.3%  4421  832s
    63    96    1.00000    6 2384    0.90672    1.00000  10.3%  2538 1258s
    95   128    1.00000    6 2483    0.90672    1.00000  10.3%  2012 1584s
   127   160    1.00000    7 2308    0.90672    1.00000  10.3%  1663 1632s
   159   192    1.00000    7 2482    0.90672    1.00000  10.3%  1470 3381s
   191   227    1.00000    8 2367    0.90672    1.00000  10.3%  1292 3600s

Explored 226 nodes (288357 simplex iterations) in 3601.02 seconds (6142.00 work units)
Thread count was 32 (of 192 available processors)

Solution count 1: 0.906716 

Time limit reached
Best objective 9.067164179104e-01, best bound 1.000000000000e+00, gap 10.2881%

User-callback calls 2028767, time in user-callback 9.36 sec
